p tw 144 26641 2 
1 73 
1 76 
1 78 
1 79 
1 82 
1 84 
1 85 
1 88 
1 90 
1 91 
1 93 
1 95 
1 97 
1 99 
1 101 
1 104 
1 105 
1 108 
1 110 
1 112 
1 114 
1 115 
1 117 
1 119 
1 121 
1 123 
1 126 
1 127 
1 130 
1 132 
1 133 
1 136 
1 137 
1 140 
1 142 
1 143 
2 74 
2 75 
2 77 
2 80 
2 81 
2 83 
2 86 
2 87 
2 89 
2 92 
2 94 
2 96 
2 98 
2 100 
2 102 
2 103 
2 106 
2 107 
2 109 
2 111 
2 113 
2 116 
2 118 
2 120 
2 122 
2 124 
2 125 
2 128 
2 129 
2 131 
2 134 
2 135 
2 138 
2 139 
2 141 
2 144 
3 4 
3 74 
3 76 
3 77 
3 80 
3 82 
3 84 
3 86 
3 87 
3 90 
3 91 
3 93 
3 96 
3 98 
3 99 
3 102 
3 104 
3 106 
3 107 
3 110 
3 112 
3 113 
3 115 
3 117 
3 120 
3 121 
3 123 
3 125 
3 128 
3 130 
3 132 
3 133 
3 135 
3 138 
3 139 
3 141 
3 143 
4 73 
4 75 
4 78 
4 79 
4 81 
4 83 
4 85 
4 88 
4 89 
4 92 
4 94 
4 95 
4 97 
4 100 
4 101 
4 103 
4 105 
4 108 
4 109 
4 111 
4 114 
4 116 
4 118 
4 119 
4 122 
4 124 
4 126 
4 127 
4 129 
4 131 
4 134 
4 136 
4 137 
4 140 
4 142 
4 144 
5 6 
5 74 
5 76 
5 78 
5 79 
5 82 
5 83 
5 86 
5 88 
5 89 
5 92 
5 93 
5 95 
5 97 
5 99 
5 102 
5 103 
5 105 
5 107 
5 109 
5 111 
5 113 
5 116 
5 117 
5 119 
5 121 
5 123 
5 126 
5 127 
5 129 
5 131 
5 133 
5 135 
5 138 
5 139 
5 141 
5 143 
6 73 
6 75 
6 77 
6 80 
6 81 
6 84 
6 85 
6 87 
6 90 
6 91 
6 94 
6 96 
6 98 
6 100 
6 101 
6 104 
6 106 
6 108 
6 110 
6 112 
6 114 
6 115 
6 118 
6 120 
6 122 
6 124 
6 125 
6 128 
6 130 
6 132 
6 134 
6 136 
6 137 
6 140 
6 142 
6 144 
7 8 
7 73 
7 75 
7 77 
7 79 
7 82 
7 83 
7 85 
7 88 
7 89 
7 92 
7 93 
7 96 
7 98 
7 99 
7 101 
7 103 
7 106 
7 108 
7 110 
7 112 
7 113 
7 116 
7 118 
7 120 
7 121 
7 123 
7 126 
7 128 
7 129 
7 132 
7 133 
7 135 
7 137 
7 139 
7 142 
7 144 
8 74 
8 76 
8 78 
8 80 
8 81 
8 84 
8 86 
8 87 
8 90 
8 91 
8 94 
8 95 
8 97 
8 100 
8 102 
8 104 
8 105 
8 107 
8 109 
8 111 
8 114 
8 115 
8 117 
8 119 
8 122 
8 124 
8 125 
8 127 
8 130 
8 131 
8 134 
8 136 
8 138 
8 140 
8 141 
8 143 
9 10 
9 73 
9 76 
9 78 
9 80 
9 82 
9 84 
9 85 
9 87 
9 89 
9 92 
9 94 
9 96 
9 98 
9 100 
9 102 
9 103 
9 106 
9 108 
9 110 
9 111 
9 114 
9 115 
9 117 
9 120 
9 121 
9 124 
9 126 
9 127 
9 129 
9 131 
9 133 
9 136 
9 137 
9 139 
9 141 
9 143 
10 74 
10 75 
10 77 
10 79 
10 81 
10 83 
10 86 
10 88 
10 90 
10 91 
10 93 
10 95 
10 97 
10 99 
10 101 
10 104 
10 105 
10 107 
10 109 
10 112 
10 113 
10 116 
10 118 
10 119 
10 122 
10 123 
10 125 
10 128 
10 130 
10 132 
10 134 
10 135 
10 138 
10 140 
10 142 
10 144 
11 12 
11 73 
11 76 
11 78 
11 79 
11 81 
11 83 
11 86 
11 87 
11 89 
11 92 
11 93 
11 96 
11 97 
11 100 
11 102 
11 104 
11 105 
11 108 
11 110 
11 111 
11 113 
11 115 
11 118 
11 119 
11 122 
11 124 
11 125 
11 128 
11 130 
11 132 
11 133 
11 135 
11 137 
11 139 
11 142 
11 143 
12 74 
12 75 
12 77 
12 80 
12 82 
12 84 
12 85 
12 88 
12 90 
12 91 
12 94 
12 95 
12 98 
12 99 
12 101 
12 103 
12 106 
12 107 
12 109 
12 112 
12 114 
12 116 
12 117 
12 120 
12 121 
12 123 
12 126 
12 127 
12 129 
12 131 
12 134 
12 136 
12 138 
12 140 
12 141 
12 144 
13 14 
13 73 
13 75 
13 78 
13 79 
13 81 
13 84 
13 85 
13 87 
13 90 
13 91 
13 93 
13 95 
13 98 
13 99 
13 102 
13 103 
13 106 
13 108 
13 109 
13 111 
13 113 
13 116 
13 118 
13 120 
13 122 
13 124 
13 126 
13 127 
13 130 
13 132 
13 133 
13 135 
13 138 
13 140 
13 141 
13 143 
14 74 
14 76 
14 77 
14 80 
14 82 
14 83 
14 86 
14 88 
14 89 
14 92 
14 94 
14 96 
14 97 
14 100 
14 101 
14 104 
14 105 
14 107 
14 110 
14 112 
14 114 
14 115 
14 117 
14 119 
14 121 
14 123 
14 125 
14 128 
14 129 
14 131 
14 134 
14 136 
14 137 
14 139 
14 142 
14 144 
15 16 
15 73 
15 76 
15 77 
15 80 
15 82 
15 83 
15 85 
15 88 
15 89 
15 91 
15 93 
15 96 
15 98 
15 100 
15 102 
15 104 
15 105 
15 108 
15 109 
15 111 
15 114 
15 116 
15 117 
15 120 
15 122 
15 123 
15 125 
15 127 
15 130 
15 131 
15 133 
15 135 
15 138 
15 140 
15 142 
15 144 
16 74 
16 75 
16 78 
16 79 
16 81 
16 84 
16 86 
16 87 
16 90 
16 92 
16 94 
16 95 
16 97 
16 99 
16 101 
16 103 
16 106 
16 107 
16 110 
16 112 
16 113 
16 115 
16 118 
16 119 
16 121 
16 124 
16 126 
16 128 
16 129 
16 132 
16 134 
16 136 
16 137 
16 139 
16 141 
16 143 
17 18 
17 73 
17 76 
17 77 
17 80 
17 81 
17 84 
17 86 
17 88 
17 90 
17 91 
17 94 
17 96 
17 98 
17 99 
17 102 
17 103 
17 105 
17 107 
17 109 
17 111 
17 113 
17 115 
17 118 
17 119 
17 122 
17 123 
17 126 
17 127 
17 129 
17 132 
17 133 
17 136 
17 137 
17 139 
17 142 
17 144 
18 74 
18 75 
18 78 
18 79 
18 82 
18 83 
18 85 
18 87 
18 89 
18 92 
18 93 
18 95 
18 97 
18 100 
18 101 
18 104 
18 106 
18 108 
18 110 
18 112 
18 114 
18 116 
18 117 
18 120 
18 121 
18 124 
18 125 
18 128 
18 130 
18 131 
18 134 
18 135 
18 138 
18 140 
18 141 
18 143 
19 20 
19 74 
19 76 
19 78 
19 80 
19 82 
19 84 
19 86 
19 88 
19 89 
19 92 
19 94 
19 95 
19 98 
19 100 
19 101 
19 104 
19 106 
19 108 
19 110 
19 111 
19 113 
19 116 
19 118 
19 119 
19 122 
19 123 
19 126 
19 128 
19 130 
19 132 
19 133 
19 136 
19 138 
19 140 
19 141 
19 144 
20 73 
20 75 
20 77 
20 79 
20 81 
20 83 
20 85 
20 87 
20 90 
20 91 
20 93 
20 96 
20 97 
20 99 
20 102 
20 103 
20 105 
20 107 
20 109 
20 112 
20 114 
20 115 
20 117 
20 120 
20 121 
20 124 
20 125 
20 127 
20 129 
20 131 
20 134 
20 135 
20 137 
20 139 
20 142 
20 143 
21 22 
21 73 
21 76 
21 77 
21 80 
21 82 
21 83 
21 85 
21 87 
21 90 
21 92 
21 94 
21 95 
21 97 
21 99 
21 101 
21 103 
21 105 
21 107 
21 110 
21 111 
21 113 
21 116 
21 117 
21 120 
21 122 
21 124 
21 125 
21 128 
21 129 
21 132 
21 133 
21 136 
21 138 
21 140 
21 142 
21 143 
22 74 
22 75 
22 78 
22 79 
22 81 
22 84 
22 86 
22 88 
22 89 
22 91 
22 93 
22 96 
22 98 
22 100 
22 102 
22 104 
22 106 
22 108 
22 109 
22 112 
22 114 
22 115 
22 118 
22 119 
22 121 
22 123 
22 126 
22 127 
22 130 
22 131 
22 134 
22 135 
22 137 
22 139 
22 141 
22 144 
23 24 
23 73 
23 75 
23 77 
23 79 
23 81 
23 84 
23 86 
23 88 
23 89 
23 91 
23 94 
23 95 
23 97 
23 100 
23 102 
23 104 
23 106 
23 108 
23 110 
23 111 
23 113 
23 116 
23 117 
23 120 
23 121 
23 123 
23 125 
23 127 
23 129 
23 132 
23 134 
23 136 
23 138 
23 139 
23 142 
23 143 
24 74 
24 76 
24 78 
24 80 
24 82 
24 83 
24 85 
24 87 
24 90 
24 92 
24 93 
24 96 
24 98 
24 99 
24 101 
24 103 
24 105 
24 107 
24 109 
24 112 
24 114 
24 115 
24 118 
24 119 
24 122 
24 124 
24 126 
24 128 
24 130 
24 131 
24 133 
24 135 
24 137 
24 140 
24 141 
24 144 
25 26 
25 73 
25 76 
25 77 
25 79 
25 82 
25 84 
25 86 
25 87 
25 89 
25 92 
25 94 
25 95 
25 98 
25 99 
25 102 
25 103 
25 106 
25 107 
25 110 
25 112 
25 114 
25 116 
25 118 
25 119 
25 122 
25 123 
25 125 
25 127 
25 130 
25 131 
25 134 
25 135 
25 137 
25 140 
25 142 
25 143 
26 74 
26 75 
26 78 
26 80 
26 81 
26 83 
26 85 
26 88 
26 90 
26 91 
26 93 
26 96 
26 97 
26 100 
26 101 
26 104 
26 105 
26 108 
26 109 
26 111 
26 113 
26 115 
26 117 
26 120 
26 121 
26 124 
26 126 
26 128 
26 129 
26 132 
26 133 
26 136 
26 138 
26 139 
26 141 
26 144 
27 28 
27 74 
27 76 
27 77 
27 79 
27 82 
27 83 
27 85 
27 88 
27 90 
27 91 
27 94 
27 95 
27 97 
27 100 
27 102 
27 103 
27 106 
27 108 
27 110 
27 112 
27 114 
27 115 
27 118 
27 119 
27 122 
27 124 
27 125 
27 127 
27 129 
27 132 
27 133 
27 135 
27 138 
27 139 
27 141 
27 144 
28 73 
28 75 
28 78 
28 80 
28 81 
28 84 
28 86 
28 87 
28 89 
28 92 
28 93 
28 96 
28 98 
28 99 
28 101 
28 104 
28 105 
28 107 
28 109 
28 111 
28 113 
28 116 
28 117 
28 120 
28 121 
28 123 
28 126 
28 128 
28 130 
28 131 
28 134 
28 136 
28 137 
28 140 
28 142 
28 143 
29 30 
29 73 
29 75 
29 77 
29 80 
29 82 
29 84 
29 86 
29 88 
29 90 
29 92 
29 93 
29 96 
29 97 
29 100 
29 101 
29 104 
29 106 
29 107 
29 109 
29 111 
29 114 
29 116 
29 118 
29 119 
29 121 
29 124 
29 125 
29 127 
29 129 
29 132 
29 133 
29 135 
29 137 
29 140 
29 141 
29 143 
30 74 
30 76 
30 78 
30 79 
30 81 
30 83 
30 85 
30 87 
30 89 
30 91 
30 94 
30 95 
30 98 
30 99 
30 102 
30 103 
30 105 
30 108 
30 110 
30 112 
30 113 
30 115 
30 117 
30 120 
30 122 
30 123 
30 126 
30 128 
30 130 
30 131 
30 134 
30 136 
30 138 
30 139 
30 142 
30 144 
31 32 
31 73 
31 76 
31 78 
31 80 
31 81 
31 84 
31 85 
31 88 
31 89 
31 91 
31 93 
31 95 
31 98 
31 100 
31 102 
31 103 
31 105 
31 107 
31 110 
31 112 
31 113 
31 116 
31 117 
31 119 
31 121 
31 124 
31 125 
31 128 
31 129 
31 132 
31 134 
31 135 
31 137 
31 140 
31 141 
31 144 
32 74 
32 75 
32 77 
32 79 
32 82 
32 83 
32 86 
32 87 
32 90 
32 92 
32 94 
32 96 
32 97 
32 99 
32 101 
32 104 
32 106 
32 108 
32 109 
32 111 
32 114 
32 115 
32 118 
32 120 
32 122 
32 123 
32 126 
32 127 
32 130 
32 131 
32 133 
32 136 
32 138 
32 139 
32 142 
32 143 
33 34 
33 74 
33 75 
33 77 
33 80 
33 82 
33 84 
33 85 
33 88 
33 89 
33 92 
33 93 
33 95 
33 98 
33 99 
33 102 
33 103 
33 105 
33 108 
33 109 
33 111 
33 114 
33 115 
33 118 
33 119 
33 121 
33 124 
33 125 
33 128 
33 130 
33 132 
33 134 
33 136 
33 138 
33 139 
33 142 
33 143 
34 73 
34 76 
34 78 
34 79 
34 81 
34 83 
34 86 
34 87 
34 90 
34 91 
34 94 
34 96 
34 97 
34 100 
34 101 
34 104 
34 106 
34 107 
34 110 
34 112 
34 113 
34 116 
34 117 
34 120 
34 122 
34 123 
34 126 
34 127 
34 129 
34 131 
34 133 
34 135 
34 137 
34 140 
34 141 
34 144 
35 36 
35 74 
35 75 
35 77 
35 79 
35 82 
35 84 
35 85 
35 88 
35 89 
35 92 
35 94 
35 96 
35 97 
35 99 
35 102 
35 104 
35 105 
35 107 
35 110 
35 111 
35 113 
35 115 
35 117 
35 120 
35 122 
35 124 
35 126 
35 127 
35 130 
35 132 
35 134 
35 135 
35 137 
35 140 
35 141 
35 144 
36 73 
36 76 
36 78 
36 80 
36 81 
36 83 
36 86 
36 87 
36 90 
36 91 
36 93 
36 95 
36 98 
36 100 
36 101 
36 103 
36 106 
36 108 
36 109 
36 112 
36 114 
36 116 
36 118 
36 119 
36 121 
36 123 
36 125 
36 128 
36 129 
36 131 
36 133 
36 136 
36 138 
36 139 
36 142 
36 143 
37 38 
37 74 
37 75 
37 78 
37 80 
37 82 
37 83 
37 86 
37 87 
37 89 
37 91 
37 94 
37 96 
37 97 
37 99 
37 102 
37 103 
37 106 
37 108 
37 109 
37 112 
37 113 
37 116 
37 117 
37 119 
37 121 
37 124 
37 125 
37 127 
37 130 
37 132 
37 133 
37 136 
37 137 
37 140 
37 142 
37 144 
38 73 
38 76 
38 77 
38 79 
38 81 
38 84 
38 85 
38 88 
38 90 
38 92 
38 93 
38 95 
38 98 
38 100 
38 101 
38 104 
38 105 
38 107 
38 110 
38 111 
38 114 
38 115 
38 118 
38 120 
38 122 
38 123 
38 126 
38 128 
38 129 
38 131 
38 134 
38 135 
38 138 
38 139 
38 141 
38 143 
39 40 
39 73 
39 76 
39 77 
39 79 
39 82 
39 83 
39 85 
39 87 
39 89 
39 91 
39 94 
39 96 
39 98 
39 100 
39 101 
39 104 
39 105 
39 107 
39 109 
39 112 
39 113 
39 116 
39 118 
39 119 
39 121 
39 124 
39 126 
39 127 
39 130 
39 132 
39 134 
39 136 
39 138 
39 139 
39 141 
39 143 
40 74 
40 75 
40 78 
40 80 
40 81 
40 84 
40 86 
40 88 
40 90 
40 92 
40 93 
40 95 
40 97 
40 99 
40 102 
40 103 
40 106 
40 108 
40 110 
40 111 
40 114 
40 115 
40 117 
40 120 
40 122 
40 123 
40 125 
40 128 
40 129 
40 131 
40 133 
40 135 
40 137 
40 140 
40 142 
40 144 
41 42 
41 73 
41 75 
41 77 
41 80 
41 81 
41 83 
41 86 
41 87 
41 89 
41 92 
41 93 
41 95 
41 97 
41 100 
41 102 
41 103 
41 105 
41 107 
41 110 
41 112 
41 114 
41 115 
41 118 
41 120 
41 121 
41 123 
41 126 
41 127 
41 130 
41 132 
41 133 
41 136 
41 138 
41 140 
41 141 
41 144 
42 74 
42 76 
42 78 
42 79 
42 82 
42 84 
42 85 
42 88 
42 90 
42 91 
42 94 
42 96 
42 98 
42 99 
42 101 
42 104 
42 106 
42 108 
42 109 
42 111 
42 113 
42 116 
42 117 
42 119 
42 122 
42 124 
42 125 
42 128 
42 129 
42 131 
42 134 
42 135 
42 137 
42 139 
42 142 
42 143 
43 44 
43 74 
43 76 
43 78 
43 80 
43 81 
43 83 
43 86 
43 88 
43 90 
43 92 
43 94 
43 96 
43 98 
43 99 
43 102 
43 104 
43 105 
43 108 
43 110 
43 112 
43 114 
43 116 
43 118 
43 120 
43 121 
43 124 
43 126 
43 127 
43 129 
43 132 
43 134 
43 135 
43 138 
43 140 
43 142 
43 143 
44 73 
44 75 
44 77 
44 79 
44 82 
44 84 
44 85 
44 87 
44 89 
44 91 
44 93 
44 95 
44 97 
44 100 
44 101 
44 103 
44 106 
44 107 
44 109 
44 111 
44 113 
44 115 
44 117 
44 119 
44 122 
44 123 
44 125 
44 128 
44 130 
44 131 
44 133 
44 136 
44 137 
44 139 
44 141 
44 144 
45 46 
45 73 
45 76 
45 77 
45 80 
45 81 
45 83 
45 85 
45 87 
45 90 
45 92 
45 94 
45 95 
45 97 
45 99 
45 102 
45 104 
45 106 
45 108 
45 109 
45 111 
45 114 
45 116 
45 117 
45 119 
45 121 
45 123 
45 126 
45 128 
45 130 
45 132 
45 134 
45 135 
45 137 
45 139 
45 141 
45 144 
46 74 
46 75 
46 78 
46 79 
46 82 
46 84 
46 86 
46 88 
46 89 
46 91 
46 93 
46 96 
46 98 
46 100 
46 101 
46 103 
46 105 
46 107 
46 110 
46 112 
46 113 
46 115 
46 118 
46 120 
46 122 
46 124 
46 125 
46 127 
46 129 
46 131 
46 133 
46 136 
46 138 
46 140 
46 142 
46 143 
47 48 
47 73 
47 75 
47 78 
47 80 
47 82 
47 83 
47 86 
47 88 
47 90 
47 92 
47 94 
47 95 
47 98 
47 100 
47 101 
47 103 
47 105 
47 108 
47 109 
47 112 
47 113 
47 115 
47 117 
47 120 
47 122 
47 123 
47 125 
47 127 
47 130 
47 132 
47 134 
47 135 
47 137 
47 139 
47 141 
47 143 
48 74 
48 76 
48 77 
48 79 
48 81 
48 84 
48 85 
48 87 
48 89 
48 91 
48 93 
48 96 
48 97 
48 99 
48 102 
48 104 
48 106 
48 107 
48 110 
48 111 
48 114 
48 116 
48 118 
48 119 
48 121 
48 124 
48 126 
48 128 
48 129 
48 131 
48 133 
48 136 
48 138 
48 140 
48 142 
48 144 
49 50 
49 73 
49 75 
49 78 
49 80 
49 82 
49 84 
49 85 
49 87 
49 90 
49 92 
49 93 
49 96 
49 97 
49 99 
49 102 
49 104 
49 105 
49 108 
49 110 
49 112 
49 113 
49 116 
49 118 
49 119 
49 122 
49 123 
49 125 
49 127 
49 129 
49 131 
49 134 
49 136 
49 138 
49 139 
49 141 
49 144 
50 74 
50 76 
50 77 
50 79 
50 81 
50 83 
50 86 
50 88 
50 89 
50 91 
50 94 
50 95 
50 98 
50 100 
50 101 
50 103 
50 106 
50 107 
50 109 
50 111 
50 114 
50 115 
50 117 
50 120 
50 121 
50 124 
50 126 
50 128 
50 130 
50 132 
50 133 
50 135 
50 137 
50 140 
50 142 
50 143 
51 52 
51 73 
51 75 
51 78 
51 79 
51 82 
51 83 
51 86 
51 88 
51 90 
51 91 
51 94 
51 95 
51 98 
51 99 
51 102 
51 104 
51 105 
51 107 
51 110 
51 111 
51 114 
51 116 
51 118 
51 120 
51 121 
51 124 
51 125 
51 128 
51 130 
51 131 
51 133 
51 136 
51 137 
51 139 
51 141 
51 144 
52 74 
52 76 
52 77 
52 80 
52 81 
52 84 
52 85 
52 87 
52 89 
52 92 
52 93 
52 96 
52 97 
52 100 
52 101 
52 103 
52 106 
52 108 
52 109 
52 112 
52 113 
52 115 
52 117 
52 119 
52 122 
52 123 
52 126 
52 127 
52 129 
52 132 
52 134 
52 135 
52 138 
52 140 
52 142 
52 143 
53 54 
53 73 
53 75 
53 78 
53 80 
53 82 
53 83 
53 85 
53 88 
53 90 
53 91 
53 94 
53 96 
53 97 
53 100 
53 102 
53 103 
53 106 
53 107 
53 110 
53 111 
53 113 
53 115 
53 118 
53 119 
53 121 
53 123 
53 126 
53 128 
53 130 
53 131 
53 134 
53 135 
53 138 
53 140 
53 142 
53 143 
54 74 
54 76 
54 77 
54 79 
54 81 
54 84 
54 86 
54 87 
54 89 
54 92 
54 93 
54 95 
54 98 
54 99 
54 101 
54 104 
54 105 
54 108 
54 109 
54 112 
54 114 
54 116 
54 117 
54 120 
54 122 
54 124 
54 125 
54 127 
54 129 
54 132 
54 133 
54 136 
54 137 
54 139 
54 141 
54 144 
55 56 
55 74 
55 76 
55 78 
55 79 
55 82 
55 83 
55 85 
55 87 
55 90 
55 92 
55 93 
55 95 
55 98 
55 100 
55 102 
55 104 
55 106 
55 107 
55 109 
55 111 
55 113 
55 115 
55 118 
55 120 
55 121 
55 123 
55 125 
55 127 
55 129 
55 132 
55 134 
55 136 
55 137 
55 140 
55 142 
55 144 
56 73 
56 75 
56 77 
56 80 
56 81 
56 84 
56 86 
56 88 
56 89 
56 91 
56 94 
56 96 
56 97 
56 99 
56 101 
56 103 
56 105 
56 108 
56 110 
56 112 
56 114 
56 116 
56 117 
56 119 
56 122 
56 124 
56 126 
56 128 
56 130 
56 131 
56 133 
56 135 
56 138 
56 139 
56 141 
56 143 
57 58 
57 73 
57 75 
57 78 
57 79 
57 81 
57 83 
57 85 
57 88 
57 89 
57 92 
57 94 
57 96 
57 98 
57 99 
57 102 
57 104 
57 106 
57 107 
57 109 
57 112 
57 114 
57 115 
57 117 
57 119 
57 122 
57 123 
57 125 
57 128 
57 129 
57 132 
57 133 
57 136 
57 138 
57 140 
57 141 
57 143 
58 74 
58 76 
58 77 
58 80 
58 82 
58 84 
58 86 
58 87 
58 90 
58 91 
58 93 
58 95 
58 97 
58 100 
58 101 
58 103 
58 105 
58 108 
58 110 
58 111 
58 113 
58 116 
58 118 
58 120 
58 121 
58 124 
58 126 
58 127 
58 130 
58 131 
58 134 
58 135 
58 137 
58 139 
58 142 
58 144 
59 60 
59 74 
59 75 
59 78 
59 80 
59 82 
59 84 
59 85 
59 87 
59 89 
59 91 
59 94 
59 95 
59 97 
59 100 
59 102 
59 104 
59 105 
59 107 
59 109 
59 112 
59 114 
59 116 
59 118 
59 120 
59 122 
59 123 
59 126 
59 128 
59 129 
59 132 
59 133 
59 135 
59 137 
59 139 
59 142 
59 143 
60 73 
60 76 
60 77 
60 79 
60 81 
60 83 
60 86 
60 88 
60 90 
60 92 
60 93 
60 96 
60 98 
60 99 
60 101 
60 103 
60 106 
60 108 
60 110 
60 111 
60 113 
60 115 
60 117 
60 119 
60 121 
60 124 
60 125 
60 127 
60 130 
60 131 
60 134 
60 136 
60 138 
60 140 
60 141 
60 144 
61 62 
61 73 
61 75 
61 77 
61 79 
61 82 
61 84 
61 86 
61 87 
61 90 
61 92 
61 94 
61 95 
61 98 
61 100 
61 102 
61 104 
61 105 
61 108 
61 109 
61 112 
61 113 
61 115 
61 117 
61 119 
61 121 
61 124 
61 126 
61 128 
61 129 
61 131 
61 133 
61 135 
61 138 
61 140 
61 142 
61 144 
62 74 
62 76 
62 78 
62 80 
62 81 
62 83 
62 85 
62 88 
62 89 
62 91 
62 93 
62 96 
62 97 
62 99 
62 101 
62 103 
62 106 
62 107 
62 110 
62 111 
62 114 
62 116 
62 118 
62 120 
62 122 
62 123 
62 125 
62 127 
62 130 
62 132 
62 134 
62 136 
62 137 
62 139 
62 141 
62 143 
63 64 
63 74 
63 75 
63 77 
63 79 
63 82 
63 83 
63 86 
63 87 
63 90 
63 91 
63 93 
63 96 
63 98 
63 100 
63 102 
63 103 
63 105 
63 108 
63 110 
63 111 
63 114 
63 116 
63 117 
63 119 
63 122 
63 123 
63 126 
63 128 
63 129 
63 132 
63 134 
63 136 
63 137 
63 140 
63 141 
63 143 
64 73 
64 76 
64 78 
64 80 
64 81 
64 84 
64 85 
64 88 
64 89 
64 92 
64 94 
64 95 
64 97 
64 99 
64 101 
64 104 
64 106 
64 107 
64 109 
64 112 
64 113 
64 115 
64 118 
64 120 
64 121 
64 124 
64 125 
64 127 
64 130 
64 131 
64 133 
64 135 
64 138 
64 139 
64 142 
64 144 
65 66 
65 73 
65 75 
65 78 
65 80 
65 82 
65 83 
65 86 
65 87 
65 89 
65 91 
65 93 
65 95 
65 98 
65 99 
65 101 
65 104 
65 106 
65 107 
65 110 
65 111 
65 114 
65 115 
65 117 
65 119 
65 122 
65 124 
65 126 
65 127 
65 129 
65 132 
65 134 
65 135 
65 138 
65 139 
65 142 
65 144 
66 74 
66 76 
66 77 
66 79 
66 81 
66 84 
66 85 
66 88 
66 90 
66 92 
66 94 
66 96 
66 97 
66 100 
66 102 
66 103 
66 105 
66 108 
66 109 
66 112 
66 113 
66 116 
66 118 
66 120 
66 121 
66 123 
66 125 
66 128 
66 130 
66 131 
66 133 
66 136 
66 137 
66 140 
66 141 
66 143 
67 68 
67 73 
67 76 
67 78 
67 79 
67 82 
67 84 
67 86 
67 87 
67 89 
67 91 
67 94 
67 96 
67 97 
67 99 
67 101 
67 103 
67 105 
67 108 
67 109 
67 111 
67 114 
67 115 
67 118 
67 120 
67 121 
67 123 
67 125 
67 128 
67 129 
67 132 
67 134 
67 135 
67 138 
67 140 
67 141 
67 144 
68 74 
68 75 
68 77 
68 80 
68 81 
68 83 
68 85 
68 88 
68 90 
68 92 
68 93 
68 95 
68 98 
68 100 
68 102 
68 104 
68 106 
68 107 
68 110 
68 112 
68 113 
68 116 
68 117 
68 119 
68 122 
68 124 
68 126 
68 127 
68 130 
68 131 
68 133 
68 136 
68 137 
68 139 
68 142 
68 143 
69 70 
69 73 
69 76 
69 78 
69 79 
69 82 
69 84 
69 86 
69 88 
69 90 
69 92 
69 93 
69 96 
69 97 
69 100 
69 102 
69 103 
69 106 
69 107 
69 109 
69 112 
69 114 
69 116 
69 117 
69 120 
69 122 
69 124 
69 126 
69 128 
69 130 
69 132 
69 134 
69 136 
69 138 
69 139 
69 142 
69 144 
70 74 
70 75 
70 77 
70 80 
70 81 
70 83 
70 85 
70 87 
70 89 
70 91 
70 94 
70 95 
70 98 
70 99 
70 101 
70 104 
70 105 
70 108 
70 110 
70 111 
70 113 
70 115 
70 118 
70 119 
70 121 
70 123 
70 125 
70 127 
70 129 
70 131 
70 133 
70 135 
70 137 
70 140 
70 141 
70 143 
71 72 
71 73 
71 76 
71 77 
71 80 
71 82 
71 83 
71 86 
71 88 
71 89 
71 91 
71 93 
71 95 
71 97 
71 99 
71 102 
71 104 
71 106 
71 108 
71 109 
71 112 
71 113 
71 115 
71 118 
71 120 
71 122 
71 124 
71 126 
71 128 
71 129 
71 131 
71 134 
71 136 
71 137 
71 140 
71 141 
71 143 
72 74 
72 75 
72 78 
72 79 
72 81 
72 84 
72 85 
72 87 
72 90 
72 92 
72 94 
72 96 
72 98 
72 100 
72 101 
72 103 
72 105 
72 107 
72 110 
72 111 
72 114 
72 116 
72 117 
72 119 
72 121 
72 123 
72 125 
72 127 
72 130 
72 132 
72 133 
72 135 
72 138 
72 139 
72 142 
72 144 
73 74 
75 76 
77 78 
79 80 
81 82 
83 84 
85 86 
87 88 
89 90 
91 92 
93 94 
95 96 
97 98 
99 100 
101 102 
103 104 
105 106 
107 108 
109 110 
111 112 
113 114 
115 116 
117 118 
119 120 
121 122 
123 124 
125 126 
127 128 
129 130 
131 132 
133 134 
135 136 
137 138 
139 140 
141 142 
143 144 
